language Essence 1.3

letting nbSizes      be 2)
letting col_per_slab be 39
letting n_colours    be 88
letting n_orders     be 111

letting ordSize be function (1 --> 4, 2 --> 22 )
letting ordCol  be function (1 --> 1, 2 --> 2 )

